NAME : instances/clustered-mixed-tsp/instance-73.tsp
COMMENT : No Comment
TYPE : TSP
DIMENSION: 55
EDGE_WEIGHT_TYPE : EUC_2D
NODE_COORD_SECTION
1 137 955 
2 495 173 
3 404 290 
4 215 -56 
5 449 -18 
6 363 1015 
7 593 437 
8 633 706 
9 -45 916 
10 648 261 
11 -126 827 
12 440 105 
13 -61 918 
14 570 -38 
15 469 446 
16 493 893 
17 319 151 
18 796 960 
19 51 768 
20 628 740 
21 527 229 
22 1121 843 
23 280 617 
24 579 333 
25 768 212 
26 376 859 
27 754 219 
28 592 -31 
29 141 423 
30 403 492 
31 319 281 
32 108 944 
33 -35 1113 
34 134 879 
35 137 890 
36 480 854 
37 572 466 
38 1118 620 
39 90 859 
40 46 747 
41 246 781 
42 280 -4 
43 645 294 
44 573 329 
45 47 212 
46 359 173 
47 892 489 
48 840 138 
49 540 307 
50 788 320 
51 307 238 
52 293 372 
53 77 755 
54 796 921 
55 333 576 
EOF
